========================================================== 
File name: C:\DEGR\assets\definitions\MSRCPSP_Gen\500_40_512_10_D.def
Creation date: Sat May 06 09:17:05 CEST 2023
Website: http://imopse.ii.pwr.edu.pl/ 
Reference: 
Myszkowski P. B., Skowronski M. E., Olech L., Oslizlo K., 
Hybrid Ant Colony Optimization in solving Multi-Skill Resource-Constrained Project Scheduling Problem, 
Soft Computing, DOI: DOI 10.1007/s00500-014-1455-x 
========================================================== 
General characteristics: 
Tasks: 500
Resources: 40
Precedence relations: 511
Number of skill types: 10
========================================================== 
ResourceID 	 Salary 	 Skills 
1	 	 	79.1	 	 Q8: 1 	  Q3: 0 	  Q9: 0 	 
2	 	 	66.6	 	 Q5: 3 	  Q4: 3 	  Q9: 3 	  Q8: 0 	  Q1: 0 	  Q0: 2 	  Q2: 3 	 
3	 	 	58.7	 	 Q3: 1 	  Q6: 2 	  Q8: 2 	  Q2: 1 	  Q0: 0 	  Q4: 0 	  Q9: 2 	 
4	 	 	32.4	 	 Q8: 1 	  Q3: 0 	  Q1: 2 	  Q9: 2 	  Q4: 3 	  Q0: 2 	  Q7: 3 	 
5	 	 	83.9	 	 Q8: 1 	 
6	 	 	92.6	 	 Q9: 1 	  Q2: 3 	  Q4: 2 	  Q6: 0 	  Q3: 1 	  Q5: 1 	  Q1: 0 	  Q0: 2 	 
7	 	 	40.5	 	 Q0: 0 	 
8	 	 	80.8	 	 Q4: 2 	  Q0: 3 	  Q6: 2 	  Q3: 2 	  Q9: 0 	  Q1: 2 	  Q2: 0 	  Q5: 1 	  Q7: 0 	 
9	 	 	30.2	 	 Q2: 2 	  Q3: 1 	 
10	 	 	70.0	 	 Q7: 0 	  Q5: 2 	  Q4: 1 	 
11	 	 	62.0	 	 Q1: 1 	  Q8: 2 	  Q0: 1 	  Q6: 0 	  Q2: 2 	  Q5: 2 	  Q3: 1 	 
12	 	 	70.3	 	 Q0: 1 	 
13	 	 	97.2	 	 Q3: 0 	  Q8: 1 	  Q0: 2 	 
14	 	 	59.2	 	 Q6: 0 	  Q2: 1 	 
15	 	 	99.1	 	 Q2: 3 	  Q5: 1 	 
16	 	 	12.3	 	 Q5: 1 	  Q3: 0 	  Q9: 0 	  Q6: 1 	 
17	 	 	22.6	 	 Q1: 2 	  Q4: 3 	  Q3: 3 	  Q0: 0 	  Q2: 1 	  Q5: 2 	 
18	 	 	55.8	 	 Q9: 0 	  Q3: 2 	  Q0: 2 	  Q4: 1 	  Q5: 1 	  Q1: 3 	  Q6: 1 	  Q7: 1 	  Q2: 0 	 
19	 	 	57.2	 	 Q7: 2 	  Q5: 1 	  Q3: 0 	  Q2: 2 	  Q0: 0 	  Q8: 2 	 
20	 	 	72.3	 	 Q5: 3 	  Q1: 2 	  Q9: 0 	  Q3: 2 	  Q6: 3 	  Q0: 3 	  Q2: 0 	  Q8: 3 	  Q7: 1 	 
21	 	 	46.2	 	 Q1: 0 	  Q9: 3 	  Q2: 2 	  Q3: 1 	  Q5: 2 	  Q0: 0 	  Q6: 2 	  Q8: 1 	 
22	 	 	59.9	 	 Q4: 2 	  Q2: 0 	  Q3: 1 	  Q1: 0 	  Q7: 2 	  Q0: 1 	  Q6: 0 	  Q5: 2 	  Q9: 3 	 
23	 	 	95.8	 	 Q4: 3 	  Q1: 3 	  Q3: 3 	  Q2: 3 	  Q7: 2 	  Q0: 0 	  Q8: 3 	  Q6: 3 	 
24	 	 	34.4	 	 Q3: 0 	  Q5: 1 	  Q4: 0 	  Q9: 0 	  Q0: 1 	  Q7: 2 	  Q6: 3 	  Q8: 0 	 
25	 	 	10.4	 	 Q7: 3 	  Q3: 3 	  Q1: 1 	  Q5: 0 	  Q6: 1 	  Q8: 3 	  Q4: 0 	  Q9: 1 	 
26	 	 	76.5	 	 Q2: 0 	  Q7: 2 	  Q9: 2 	  Q5: 2 	 
27	 	 	81.5	 	 Q6: 2 	  Q7: 2 	  Q5: 3 	  Q8: 0 	  Q2: 3 	  Q1: 0 	  Q9: 1 	 
28	 	 	12.3	 	 Q7: 0 	  Q1: 2 	  Q2: 1 	  Q3: 2 	  Q9: 3 	  Q8: 3 	  Q4: 1 	  Q6: 1 	 
29	 	 	43.3	 	 Q4: 3 	  Q9: 0 	  Q3: 1 	 
30	 	 	35.5	 	 Q0: 0 	  Q8: 3 	  Q3: 0 	  Q6: 0 	  Q1: 2 	  Q4: 2 	  Q2: 1 	  Q9: 2 	 
31	 	 	78.2	 	 Q6: 2 	  Q5: 3 	  Q3: 1 	 
32	 	 	23.5	 	 Q5: 0 	  Q2: 0 	  Q3: 2 	  Q6: 2 	  Q8: 3 	  Q4: 3 	 
33	 	 	66.1	 	 Q0: 2 	  Q1: 3 	  Q4: 2 	  Q7: 0 	  Q9: 0 	  Q3: 2 	 
34	 	 	44.5	 	 Q9: 0 	  Q1: 1 	  Q3: 1 	  Q2: 2 	  Q8: 1 	 
35	 	 	66.8	 	 Q6: 3 	  Q3: 2 	 
36	 	 	34.8	 	 Q6: 0 	  Q3: 2 	  Q0: 0 	 
37	 	 	18.1	 	 Q8: 2 	  Q5: 0 	 
38	 	 	55.2	 	 Q5: 2 	  Q4: 1 	  Q8: 3 	 
39	 	 	20.0	 	 Q9: 3 	  Q1: 0 	  Q2: 3 	  Q0: 0 	  Q5: 2 	  Q8: 0 	  Q6: 3 	  Q4: 2 	 
40	 	 	59.6	 	 Q6: 1 	  Q4: 0 	  Q7: 1 	  Q3: 3 	  Q0: 3 	  Q5: 3 	 
========================================================== 
TaskID 	 Duration 	 Skill 	 Predecessor IDs 
1	29	Q2:	0
2	37	Q4:	1
3	17	Q5:	3
4	39	Q4:	3
5	25	Q6:	0
6	30	Q2:	3
7	14	Q5:	2
8	12	Q6:	0
9	18	Q5:	3
10	28	Q0:	2
11	11	Q9:	2	2
12	12	Q5:	2
13	28	Q2:	2
14	20	Q1:	1
15	24	Q6:	1
16	32	Q0:	1
17	20	Q7:	2	11
18	32	Q2:	0
19	20	Q6:	0
20	32	Q9:	3
21	15	Q6:	2
22	10	Q3:	0
23	22	Q2:	3
24	34	Q0:	0	4
25	20	Q1:	1
26	37	Q7:	1
27	33	Q7:	3
28	12	Q7:	1
29	15	Q7:	0
30	10	Q2:	2
31	29	Q2:	3
32	14	Q2:	2
33	16	Q6:	0
34	13	Q3:	1
35	33	Q1:	3
36	12	Q5:	0
37	29	Q5:	1
38	22	Q8:	1
39	16	Q7:	2	15	17
40	37	Q0:	0
41	32	Q2:	1
42	17	Q8:	1
43	19	Q0:	2
44	29	Q0:	2	41
45	11	Q3:	2	24
46	30	Q8:	0
47	15	Q4:	0
48	15	Q2:	1
49	33	Q9:	0
50	34	Q4:	1	24
51	32	Q6:	3
52	33	Q4:	0
53	23	Q0:	2
54	12	Q4:	2
55	32	Q7:	2	20
56	21	Q9:	3
57	18	Q6:	3
58	12	Q9:	0
59	24	Q8:	2	45	52
60	23	Q4:	2
61	9	Q4:	2
62	23	Q7:	2
63	17	Q7:	3
64	16	Q5:	0
65	14	Q7:	1
66	17	Q6:	2	37
67	24	Q3:	3
68	10	Q0:	0
69	22	Q0:	3	8
70	36	Q7:	1
71	29	Q5:	3
72	25	Q4:	1
73	30	Q0:	1
74	26	Q8:	1
75	24	Q6:	0	23
76	19	Q4:	1
77	10	Q0:	1
78	15	Q0:	2
79	38	Q8:	1
80	21	Q4:	1
81	30	Q5:	3
82	10	Q8:	3	68
83	9	Q4:	3
84	25	Q6:	0	41
85	32	Q8:	3
86	39	Q1:	0
87	17	Q0:	2
88	14	Q6:	3
89	18	Q8:	3	84
90	26	Q0:	3	75
91	11	Q5:	0
92	26	Q3:	1	76
93	21	Q8:	3
94	13	Q8:	0
95	19	Q4:	3	65
96	11	Q8:	2	36
97	27	Q9:	1
98	20	Q5:	3
99	9	Q5:	3
100	34	Q1:	1	66
101	36	Q2:	2
102	27	Q8:	0
103	11	Q5:	1
104	9	Q7:	2
105	15	Q8:	0
106	24	Q2:	0
107	36	Q9:	0	84
108	22	Q3:	1	71
109	25	Q5:	2	64
110	39	Q6:	3	88	92
111	22	Q8:	3	74
112	10	Q4:	0
113	10	Q5:	2	40
114	29	Q2:	0
115	30	Q5:	0
116	9	Q4:	1
117	15	Q0:	1
118	24	Q6:	2
119	33	Q7:	0	109	66
120	32	Q6:	0
121	10	Q0:	0	97
122	18	Q2:	2	13
123	39	Q1:	1
124	13	Q5:	2
125	12	Q3:	1	83	47
126	22	Q8:	3	84
127	15	Q1:	3	122
128	11	Q4:	1	68
129	38	Q3:	2
130	36	Q7:	0
131	33	Q8:	1	54
132	29	Q7:	0	18	21	7
133	23	Q5:	3	57
134	26	Q6:	2	40
135	25	Q6:	2	93	45
136	32	Q7:	1
137	14	Q1:	2
138	13	Q5:	1	110
139	31	Q9:	0	53
140	33	Q7:	3
141	33	Q1:	3
142	20	Q2:	3	61
143	32	Q0:	1
144	14	Q3:	0
145	13	Q4:	2
146	30	Q6:	2	49
147	21	Q6:	3	7
148	39	Q8:	1
149	28	Q7:	2
150	31	Q1:	1	113
151	29	Q4:	2
152	13	Q9:	2	27	21
153	28	Q6:	0	54
154	27	Q3:	1	69
155	9	Q6:	2	62
156	28	Q5:	2
157	37	Q4:	1
158	39	Q9:	1
159	29	Q2:	1	124	42
160	27	Q3:	1	21
161	13	Q9:	3
162	19	Q7:	1
163	38	Q8:	3	101
164	29	Q0:	0	36
165	27	Q3:	1
166	38	Q1:	0
167	32	Q4:	0	17
168	14	Q4:	0	13	39
169	21	Q7:	0	123
170	14	Q1:	1	69
171	19	Q5:	1
172	29	Q0:	1	92
173	24	Q8:	2
174	25	Q4:	2
175	22	Q6:	2	133	137
176	13	Q6:	1	142
177	39	Q9:	3	162
178	16	Q1:	3
179	40	Q5:	3	84
180	20	Q3:	1	127
181	30	Q2:	0	93
182	20	Q5:	0	128
183	14	Q2:	1	51	129
184	32	Q0:	1	25
185	30	Q0:	1	64	153	20
186	8	Q8:	0	36
187	28	Q0:	3	177	98
188	18	Q2:	1	24
189	28	Q4:	2
190	35	Q6:	2	99
191	17	Q7:	3
192	23	Q3:	2
193	13	Q0:	2
194	28	Q0:	3	3
195	18	Q6:	0
196	14	Q9:	3	146
197	30	Q3:	1	88
198	34	Q5:	3	49
199	35	Q9:	3	98
200	31	Q1:	3
201	11	Q8:	0
202	16	Q6:	1
203	39	Q1:	0	55
204	15	Q0:	3	61	38
205	18	Q7:	0	103
206	28	Q0:	0	155
207	22	Q4:	3	201	184
208	21	Q2:	1
209	29	Q4:	3
210	27	Q6:	3
211	30	Q5:	0
212	15	Q9:	2	103
213	28	Q7:	1	68
214	10	Q4:	2
215	21	Q5:	0	42	130
216	12	Q0:	1	160
217	12	Q7:	3	37
218	30	Q0:	3	178	107	207
219	34	Q6:	2
220	30	Q2:	3	120	55
221	37	Q1:	2
222	24	Q3:	0
223	22	Q7:	2
224	26	Q3:	3	101
225	19	Q5:	0
226	17	Q8:	1
227	35	Q5:	1	89	194
228	37	Q9:	1
229	13	Q6:	2
230	26	Q7:	3	74
231	40	Q3:	3
232	9	Q3:	0	117
233	26	Q0:	1
234	18	Q0:	0	185	223
235	17	Q2:	2	48
236	31	Q4:	0	191
237	30	Q1:	0	86	183	235
238	29	Q5:	2	36
239	32	Q0:	2	110
240	40	Q5:	3	9
241	20	Q4:	1	17	106
242	30	Q0:	0	30	58	237
243	22	Q2:	2
244	26	Q5:	0	212	183
245	37	Q7:	1
246	22	Q8:	2	87	35
247	40	Q7:	1	142
248	25	Q3:	0	192
249	40	Q5:	1	218
250	10	Q0:	3
251	33	Q1:	0
252	40	Q5:	3	22	224
253	12	Q7:	3	30	207	237	158	166
254	20	Q8:	3
255	12	Q6:	3
256	31	Q2:	2	151
257	27	Q2:	2	174
258	13	Q6:	0	160	146
259	39	Q8:	1	29	47	258
260	34	Q1:	3
261	13	Q7:	3
262	13	Q8:	2
263	29	Q2:	1
264	19	Q4:	0	5	47
265	19	Q6:	0	134	223
266	24	Q7:	2	42
267	38	Q5:	1
268	20	Q1:	1
269	28	Q4:	3
270	24	Q5:	3
271	28	Q3:	3	78
272	31	Q3:	1	171	155	132	188
273	18	Q0:	2	20	5
274	39	Q9:	0	30	3
275	30	Q0:	1
276	34	Q4:	1	62
277	24	Q5:	0	207	269	216
278	38	Q3:	0
279	26	Q1:	2	57
280	21	Q4:	0	80	129
281	25	Q0:	0
282	22	Q4:	3
283	29	Q7:	2	87
284	14	Q9:	1	120	189
285	23	Q9:	3	252
286	40	Q9:	0	192
287	17	Q0:	0
288	32	Q9:	1	137
289	22	Q3:	3	33	268	4
290	18	Q7:	0
291	27	Q7:	3	67	82	195
292	33	Q2:	1
293	37	Q9:	0	292	106
294	35	Q5:	1	201
295	37	Q5:	1	94	241
296	15	Q9:	3	133
297	13	Q7:	3
298	35	Q7:	1	271
299	25	Q1:	3
300	18	Q5:	3	37	12
301	17	Q4:	0	46	89
302	9	Q4:	3
303	12	Q4:	1	261	216
304	20	Q2:	0	201
305	37	Q5:	3
306	22	Q9:	3
307	16	Q7:	1
308	14	Q2:	2	3	46
309	38	Q3:	0	202	23
310	20	Q3:	2
311	37	Q5:	2
312	12	Q7:	2	120
313	21	Q7:	3
314	22	Q5:	3	137	283	70
315	22	Q5:	0	147	215
316	34	Q7:	2	118
317	16	Q2:	3	290
318	23	Q6:	1	160	254
319	19	Q1:	3	235	136
320	38	Q8:	0
321	22	Q7:	1	209	305
322	13	Q2:	3	200	123	82
323	39	Q6:	0
324	12	Q7:	1
325	10	Q3:	2	268
326	9	Q8:	3	215	14
327	35	Q3:	1	276	113
328	21	Q2:	3	215
329	29	Q1:	1	88
330	33	Q0:	1	199
331	25	Q8:	2	136
332	29	Q5:	2
333	14	Q4:	2	214
334	31	Q7:	3	298
335	24	Q9:	2	227	326	51
336	10	Q7:	0
337	24	Q1:	3	264	113	252
338	31	Q2:	3	135
339	24	Q2:	1	137	310
340	25	Q2:	1	120
341	13	Q0:	1	299
342	11	Q2:	3	119	66	57
343	40	Q5:	1	30
344	13	Q4:	3	211	186	281
345	26	Q7:	2	72	30
346	34	Q0:	1	281	320
347	17	Q8:	3	93
348	26	Q8:	1
349	29	Q6:	3	130	118	113	121
350	9	Q2:	3
351	39	Q6:	0	69	257	58
352	26	Q2:	2
353	35	Q5:	0
354	33	Q1:	1	18	331
355	12	Q4:	1	164
356	25	Q2:	0
357	21	Q7:	0
358	25	Q7:	1	109	307	123
359	28	Q3:	1	184
360	11	Q6:	3	354	144	286
361	38	Q3:	0
362	13	Q3:	3	164	77	59	83
363	35	Q4:	1	90
364	16	Q9:	1	123	21	145
365	11	Q2:	0	346
366	15	Q2:	2	63	241	137
367	19	Q6:	3	209	193	50	173
368	13	Q4:	3	110	53
369	9	Q9:	0	358
370	34	Q3:	0	254
371	30	Q9:	3	177	273
372	21	Q3:	0
373	10	Q7:	3	237
374	15	Q2:	1	362	351	14	360
375	29	Q5:	1
376	16	Q5:	1	126
377	35	Q1:	3	349	204
378	28	Q4:	2	325
379	37	Q9:	0	342	311
380	31	Q9:	3
381	27	Q8:	1	196	346	66	271	342
382	34	Q1:	3	38	294	235
383	12	Q3:	2	321
384	33	Q1:	2	64	371
385	24	Q8:	3	370
386	30	Q2:	1	385	379	235
387	21	Q5:	1	294	152	26
388	12	Q1:	2
389	34	Q7:	3
390	39	Q7:	0	218
391	21	Q5:	2
392	19	Q2:	3	188
393	29	Q5:	3	160	57	242
394	24	Q7:	0
395	18	Q2:	2
396	10	Q3:	1
397	9	Q5:	0	69	394	220
398	23	Q5:	2	188
399	24	Q1:	1
400	16	Q6:	0
401	9	Q2:	3	219	91	229	146
402	29	Q9:	3	156
403	35	Q3:	0
404	14	Q7:	1	312
405	33	Q7:	2	253	100	300	174	163	395
406	15	Q9:	0	354
407	8	Q0:	1	167	245	224
408	12	Q7:	3	252	40	82
409	14	Q8:	0	147
410	20	Q9:	1	66	35	400
411	22	Q3:	3
412	10	Q8:	0
413	31	Q2:	1	115	409
414	10	Q2:	1	85	193	102
415	15	Q4:	2	51
416	35	Q0:	2	287	278
417	11	Q2:	2
418	27	Q4:	0	317
419	12	Q4:	1
420	9	Q0:	1	10
421	21	Q9:	3	128
422	20	Q4:	3
423	34	Q7:	0
424	29	Q1:	3	88	122
425	11	Q6:	0	241
426	19	Q2:	1	121
427	26	Q1:	0	10	386	347	389	224
428	21	Q7:	1	298
429	23	Q6:	0	392
430	37	Q8:	2	16
431	29	Q1:	3	386
432	16	Q9:	2	415
433	10	Q9:	2	404
434	17	Q1:	0	86	28	410
435	25	Q4:	3	288	378
436	35	Q5:	1	219	138	16	390
437	35	Q3:	2	12	283
438	31	Q6:	1	371
439	32	Q3:	1	413	223	114
440	15	Q3:	3	318	25
441	39	Q8:	2
442	35	Q5:	0
443	20	Q8:	0
444	37	Q9:	1	249	344
445	39	Q2:	0	167	139
446	24	Q5:	0	144	131	385
447	35	Q8:	0
448	18	Q1:	0	105	218
449	20	Q0:	3
450	26	Q5:	0	180
451	34	Q6:	1	309	24
452	38	Q7:	1	87
453	10	Q8:	3	180
454	13	Q0:	2	392
455	19	Q6:	3	449	322
456	12	Q0:	0	29
457	35	Q8:	0	16	302	15	171
458	40	Q2:	2	114	266	315	120
459	13	Q3:	0	350	11
460	39	Q4:	0	253	177
461	36	Q1:	1
462	34	Q1:	3	179
463	36	Q8:	0	240	368
464	10	Q0:	2	408
465	12	Q1:	3	17	446	266	173
466	39	Q5:	3	152	297
467	40	Q0:	0	107	35	72	127
468	24	Q0:	3	447	21
469	34	Q2:	3	107	27	83	323
470	23	Q5:	3	69	149	433
471	38	Q5:	3
472	28	Q3:	2	130
473	26	Q1:	3	298	255	216
474	29	Q4:	1	25
475	32	Q4:	2	13	94	394	445
476	23	Q8:	2	109	266	465
477	10	Q6:	0	314	396	387	183	465
478	33	Q6:	1	447	421	393
479	16	Q1:	2
480	34	Q0:	2	458	221	220	366	248
481	39	Q7:	3	319
482	23	Q2:	1	423
483	22	Q6:	3
484	37	Q8:	3	253	399
485	9	Q6:	3	42	270
486	17	Q3:	0	347
487	19	Q8:	0	321	99	197	104
488	19	Q4:	2	98	53
489	18	Q9:	0	287	370
490	26	Q1:	1	383	446	374
491	9	Q8:	1	38	246	128
492	22	Q8:	2	201
493	23	Q5:	0
494	16	Q9:	1	16	259	301	68
495	23	Q0:	2	305	383
496	16	Q3:	3
497	22	Q7:	2	231	93
498	34	Q7:	0	71
499	32	Q2:	0	357	61	303
500	25	Q3:	3	87	337	359
========================================================== 